<?xml version = "1.0" encoding="UTF-8" standalone="yes"?>
<CPLEXSolution version="1.2">
 <header
   problemName="IloCplex"
   solutionName="p0"
   solutionIndex="-1"
   objectiveValue="12475293"
   solutionTypeValue="3"
   solutionTypeString="primal"
   solutionStatusValue="127"
   solutionStatusString="integer feasible solution"
   solutionMethodString="mip"
   primalFeasible="0"
   dualFeasible="0"
   writeLevel="3"/>
 <quality
   epInt="1.0000000000000001e-05"
   epRHS="9.9999999999999995e-07"
   maxIntInfeas="0"
   maxPrimalInfeas="0"
   maxX="1"
   maxSlack="1"/>
 <variables>
  <variable name="w2_0" index="30" value="1"/>
  <variable name="w2_1" index="31" value="1"/>
  <variable name="w2_3" index="33" value="1"/>
  <variable name="w2_5" index="35" value="1"/>
  <variable name="w2_6" index="36" value="1"/>
  <variable name="w2_7" index="37" value="1"/>
  <variable name="w2_8" index="38" value="1"/>
  <variable name="w2_9" index="39" value="1"/>
  <variable name="w2_10" index="40" value="1"/>
  <variable name="w2_11" index="41" value="1"/>
  <variable name="w2_13" index="43" value="1"/>
  <variable name="w2_14" index="44" value="1"/>
  <variable name="w6_0" index="90" value="1"/>
  <variable name="w6_1" index="91" value="1"/>
  <variable name="w6_3" index="93" value="1"/>
  <variable name="w6_5" index="95" value="1"/>
  <variable name="w6_6" index="96" value="1"/>
  <variable name="w6_7" index="97" value="1"/>
  <variable name="w6_8" index="98" value="1"/>
  <variable name="w6_9" index="99" value="1"/>
  <variable name="w6_10" index="100" value="1"/>
  <variable name="w6_11" index="101" value="1"/>
  <variable name="w6_13" index="103" value="1"/>
  <variable name="w6_14" index="104" value="1"/>
  <variable name="w7_0" index="105" value="1"/>
  <variable name="w7_1" index="106" value="1"/>
  <variable name="w7_3" index="108" value="1"/>
  <variable name="w7_5" index="110" value="1"/>
  <variable name="w7_6" index="111" value="1"/>
  <variable name="w7_7" index="112" value="1"/>
  <variable name="w7_8" index="113" value="1"/>
  <variable name="w7_9" index="114" value="1"/>
  <variable name="w7_10" index="115" value="1"/>
  <variable name="w7_11" index="116" value="1"/>
  <variable name="w7_13" index="118" value="1"/>
  <variable name="w7_14" index="119" value="1"/>
  <variable name="w9_0" index="135" value="1"/>
  <variable name="w9_1" index="136" value="1"/>
  <variable name="w9_3" index="138" value="1"/>
  <variable name="w9_5" index="140" value="1"/>
  <variable name="w9_6" index="141" value="1"/>
  <variable name="w9_7" index="142" value="1"/>
  <variable name="w9_8" index="143" value="1"/>
  <variable name="w9_9" index="144" value="1"/>
  <variable name="w9_10" index="145" value="1"/>
  <variable name="w9_11" index="146" value="1"/>
  <variable name="w9_13" index="148" value="1"/>
  <variable name="w9_14" index="149" value="1"/>
  <variable name="x0_326" index="551" value="1"/>
  <variable name="x1_280" index="1105" value="1"/>
  <variable name="x2_454" index="1879" value="1"/>
  <variable name="x3_303" index="2328" value="1"/>
  <variable name="x4_277" index="2902" value="1"/>
  <variable name="x5_567" index="3792" value="1"/>
  <variable name="x6_288" index="4113" value="1"/>
  <variable name="x7_34" index="4459" value="1"/>
  <variable name="x8_261" index="5286" value="1"/>
  <variable name="x9_147" index="5772" value="1"/>
  <variable name="x10_506" index="6731" value="1"/>
  <variable name="x11_62" index="6887" value="1"/>
  <variable name="x12_198" index="7623" value="1"/>
  <variable name="x13_308" index="8333" value="1"/>
  <variable name="x14_254" index="8879" value="1"/>
  <variable name="x15_188" index="9413" value="1"/>
  <variable name="x16_56" index="9881" value="1"/>
  <variable name="x17_226" index="10651" value="1"/>
  <variable name="x18_47" index="11072" value="1"/>
  <variable name="x19_99" index="11724" value="1"/>
  <variable name="x20_535" index="12760" value="1"/>
  <variable name="x21_345" index="13170" value="1"/>
  <variable name="x22_104" index="13529" value="1"/>
  <variable name="x23_400" index="14425" value="1"/>
  <variable name="x24_132" index="14757" value="1"/>
  <variable name="x25_425" index="15650" value="1"/>
  <variable name="x26_429" index="16254" value="1"/>
  <variable name="x27_19" index="16444" value="1"/>
  <variable name="x28_92" index="17117" value="1"/>
  <variable name="x29_477" index="18102" value="1"/>
  <variable name="x30_111" index="18336" value="1"/>
  <variable name="x31_148" index="18973" value="1"/>
  <variable name="x32_456" index="19881" value="1"/>
  <variable name="x33_413" index="20438" value="1"/>
  <variable name="x34_131" index="20756" value="1"/>
  <variable name="x35_262" index="21487" value="1"/>
  <variable name="x36_365" index="22190" value="1"/>
  <variable name="x37_242" index="22667" value="1"/>
  <variable name="x38_249" index="23274" value="1"/>
  <variable name="x39_423" index="24048" value="1"/>
  <variable name="x40_97" index="24322" value="1"/>
  <variable name="x41_573" index="25398" value="1"/>
  <variable name="x42_409" index="25834" value="1"/>
  <variable name="x43_44" index="26069" value="1"/>
  <variable name="x44_46" index="26671" value="1"/>
  <variable name="x45_149" index="27374" value="1"/>
  <variable name="x46_368" index="28193" value="1"/>
  <variable name="x47_469" index="28894" value="1"/>
  <variable name="x48_58" index="29083" value="1"/>
  <variable name="x49_342" index="29967" value="1"/>
  <variable name="x50_257" index="30482" value="1"/>
  <variable name="x51_153" index="30978" value="1"/>
  <variable name="x52_117" index="31542" value="1"/>
  <variable name="x53_259" index="32284" value="1"/>
  <variable name="x54_211" index="32836" value="1"/>
  <variable name="x55_221" index="33446" value="1"/>
  <variable name="x56_517" index="34342" value="1"/>
  <variable name="x57_511" index="34936" value="1"/>
  <variable name="x58_380" index="35405" value="1"/>
  <variable name="x59_293" index="35918" value="1"/>
  <variable name="x60_13" index="36238" value="1"/>
  <variable name="x61_367" index="37192" value="1"/>
  <variable name="x62_455" index="37880" value="1"/>
  <variable name="x63_130" index="38155" value="1"/>
  <variable name="x64_448" index="39073" value="1"/>
  <variable name="x65_595" index="39820" value="1"/>
  <variable name="x66_112" index="39937" value="1"/>
  <variable name="x67_285" index="40710" value="1"/>
  <variable name="x68_155" index="41180" value="1"/>
  <variable name="x69_180" index="41805" value="1"/>
  <variable name="x70_333" index="42558" value="1"/>
  <variable name="x71_43" index="42868" value="1"/>
  <variable name="x72_327" index="43752" value="1"/>
  <variable name="x73_239" index="44264" value="1"/>
  <variable name="x74_250" index="44875" value="1"/>
  <variable name="x75_171" index="45396" value="1"/>
  <variable name="x76_451" index="46276" value="1"/>
  <variable name="x77_445" index="46870" value="1"/>
  <variable name="x78_478" index="47503" value="1"/>
  <variable name="x79_401" index="48026" value="1"/>
  <variable name="x80_597" index="48822" value="1"/>
  <variable name="x81_418" index="49243" value="1"/>
  <variable name="x82_28" index="49453" value="1"/>
  <variable name="x83_298" index="50323" value="1"/>
  <variable name="x84_406" index="51031" value="1"/>
  <variable name="x85_107" index="51332" value="1"/>
  <variable name="x86_157" index="51982" value="1"/>
  <variable name="x87_529" index="52954" value="1"/>
  <variable name="x88_300" index="53325" value="1"/>
  <variable name="x89_360" index="53985" value="1"/>
  <variable name="x90_319" index="54544" value="1"/>
  <variable name="x91_530" index="55355" value="1"/>
  <variable name="x92_85" index="55510" value="1"/>
  <variable name="x93_422" index="56447" value="1"/>
  <variable name="x94_48" index="56673" value="1"/>
  <variable name="x95_193" index="57418" value="1"/>
  <variable name="x96_290" index="58115" value="1"/>
  <variable name="x97_76" index="58501" value="1"/>
  <variable name="x98_264" index="59289" value="1"/>
  <variable name="x99_421" index="60046" value="1"/>
  <variable name="x100_398" index="60623" value="1"/>
  <variable name="x101_279" index="61104" value="1"/>
  <variable name="x102_158" index="61583" value="1"/>
  <variable name="x103_191" index="62216" value="1"/>
  <variable name="x104_222" index="62847" value="1"/>
  <variable name="x105_503" index="63728" value="1"/>
  <variable name="x106_550" index="64375" value="1"/>
  <variable name="x107_218" index="64643" value="1"/>
  <variable name="x108_134" index="65159" value="1"/>
  <variable name="x109_297" index="65922" value="1"/>
  <variable name="x110_11" index="66236" value="1"/>
  <variable name="x111_555" index="67380" value="1"/>
  <variable name="x112_29" index="67454" value="1"/>
  <variable name="x113_126" index="68151" value="1"/>
  <variable name="x114_86" index="68711" value="1"/>
  <variable name="x115_289" index="69514" value="1"/>
  <variable name="x116_307" index="70132" value="1"/>
  <variable name="x117_100" index="70525" value="1"/>
  <variable name="x118_10" index="71035" value="1"/>
  <variable name="x119_164" index="71789" value="1"/>
  <variable name="x120_525" index="72750" value="1"/>
  <variable name="x121_390" index="73215" value="1"/>
  <variable name="x122_213" index="73638" value="1"/>
  <variable name="x123_94" index="74119" value="1"/>
  <variable name="x124_495" index="75120" value="1"/>
  <variable name="x125_122" index="75347" value="1"/>
  <variable name="x126_426" index="76251" value="1"/>
  <variable name="x127_5" index="76430" value="1"/>
  <variable name="x128_243" index="77268" value="1"/>
  <variable name="x129_461" index="78086" value="1"/>
  <variable name="x130_563" index="78788" value="1"/>
  <variable name="x131_154" index="78979" value="1"/>
  <variable name="x132_248" index="79673" value="1"/>
  <variable name="x133_311" index="80336" value="1"/>
  <variable name="x134_325" index="80950" value="1"/>
  <variable name="x135_484" index="81709" value="1"/>
  <variable name="x136_548" index="82373" value="1"/>
  <variable name="x137_212" index="82637" value="1"/>
  <variable name="x138_453" index="83478" value="1"/>
  <variable name="x139_182" index="83807" value="1"/>
  <variable name="x140_314" index="84539" value="1"/>
  <variable name="x141_54" index="84879" value="1"/>
  <variable name="x142_363" index="85788" value="1"/>
  <variable name="x143_168" index="86193" value="1"/>
  <variable name="x144_486" index="87111" value="1"/>
  <variable name="x145_560" index="87785" value="1"/>
  <variable name="x146_50" index="87875" value="1"/>
  <variable name="x147_490" index="88915" value="1"/>
  <variable name="x148_516" index="89541" value="1"/>
  <variable name="x149_339" index="89964" value="1"/>
  <variable name="x150_335" index="90560" value="1"/>
  <variable name="x151_581" index="91406" value="1"/>
  <variable name="x152_330" index="91755" value="1"/>
  <variable name="x153_162" index="92187" value="1"/>
  <variable name="x154_167" index="92792" value="1"/>
  <variable name="x155_373" index="93598" value="1"/>
  <variable name="x156_268" index="94093" value="1"/>
  <variable name="x157_37" index="94462" value="1"/>
  <variable name="x158_391" index="95416" value="1"/>
  <variable name="x159_256" index="95881" value="1"/>
  <variable name="x160_356" index="96581" value="1"/>
  <variable name="x161_33" index="96858" value="1"/>
  <variable name="x162_522" index="97947" value="1"/>
  <variable name="x163_437" index="98462" value="1"/>
  <variable name="x164_231" index="98856" value="1"/>
  <variable name="x165_544" index="99769" value="1"/>
  <variable name="x166_35" index="99860" value="1"/>
  <variable name="x167_590" index="101015" value="1"/>
  <variable name="x168_1" index="101026" value="1"/>
  <variable name="x169_541" index="102166" value="1"/>
  <variable name="x170_361" index="102586" value="1"/>
  <variable name="x171_474" index="103299" value="1"/>
  <variable name="x172_412" index="103837" value="1"/>
  <variable name="x173_274" index="104299" value="1"/>
  <variable name="x174_376" index="105001" value="1"/>
  <variable name="x175_172" index="105397" value="1"/>
  <variable name="x176_465" index="106290" value="1"/>
  <variable name="x177_556" index="106981" value="1"/>
  <variable name="x178_564" index="107589" value="1"/>
  <variable name="x179_301" index="107926" value="1"/>
  <variable name="x180_524" index="108749" value="1"/>
  <variable name="x181_316" index="109141" value="1"/>
  <variable name="x182_238" index="109663" value="1"/>
  <variable name="x183_140" index="110165" value="1"/>
  <variable name="x184_447" index="111072" value="1"/>
  <variable name="x185_281" index="111506" value="1"/>
  <variable name="x186_2" index="111827" value="1"/>
  <variable name="x187_532" index="112957" value="1"/>
  <variable name="x188_235" index="113260" value="1"/>
  <variable name="x189_434" index="114059" value="1"/>
  <variable name="x190_17" index="114242" value="1"/>
  <variable name="x191_161" index="114986" value="1"/>
  <variable name="x192_103" index="115528" value="1"/>
  <variable name="x193_144" index="116169" value="1"/>
  <variable name="x194_169" index="116794" value="1"/>
  <variable name="x195_574" index="117799" value="1"/>
  <variable name="x196_179" index="118004" value="1"/>
  <variable name="x197_346" index="118771" value="1"/>
  <variable name="x198_64" index="119089" value="1"/>
  <variable name="x199_428" index="120053" value="1"/>
  <variable name="x200_121" index="120346" value="1"/>
  <variable name="x201_190" index="121015" value="1"/>
  <variable name="x202_350" index="121775" value="1"/>
  <variable name="x203_468" index="122493" value="1"/>
  <variable name="x204_354" index="122979" value="1"/>
  <variable name="x205_347" index="123572" value="1"/>
  <variable name="x206_80" index="123905" value="1"/>
  <variable name="x207_521" index="124946" value="1"/>
  <variable name="x208_499" index="125524" value="1"/>
  <variable name="x209_349" index="125974" value="1"/>
  <variable name="x210_163" index="126388" value="1"/>
  <variable name="x211_201" index="127026" value="1"/>
  <variable name="x212_215" index="127640" value="1"/>
  <variable name="x213_6" index="128031" value="1"/>
  <variable name="x214_38" index="128663" value="1"/>
  <variable name="x215_247" index="129472" value="1"/>
  <variable name="x216_45" index="129870" value="1"/>
  <variable name="x217_539" index="130964" value="1"/>
  <variable name="x218_382" index="131407" value="1"/>
  <variable name="x219_508" index="132133" value="1"/>
  <variable name="x220_366" index="132591" value="1"/>
  <variable name="x221_592" index="133417" value="1"/>
  <variable name="x222_480" index="133905" value="1"/>
  <variable name="x223_444" index="134469" value="1"/>
  <variable name="x224_449" index="135074" value="1"/>
  <variable name="x225_554" index="135779" value="1"/>
  <variable name="x226_312" index="136137" value="1"/>
  <variable name="x227_72" index="136497" value="1"/>
  <variable name="x228_91" index="137116" value="1"/>
  <variable name="x229_416" index="138041" value="1"/>
  <variable name="x230_452" index="138677" value="1"/>
  <variable name="x231_265" index="139090" value="1"/>
  <variable name="x232_488" index="139913" value="1"/>
  <variable name="x233_101" index="140126" value="1"/>
  <variable name="x234_533" index="141158" value="1"/>
  <variable name="x235_113" index="141338" value="1"/>
  <variable name="x236_214" index="142039" value="1"/>
  <variable name="x237_383" index="142808" value="1"/>
  <variable name="x238_575" index="143600" value="1"/>
  <variable name="x239_229" index="143854" value="1"/>
  <variable name="x240_599" index="144824" value="1"/>
  <variable name="x241_384" index="145209" value="1"/>
  <variable name="x242_512" index="145937" value="1"/>
  <variable name="x243_430" index="146455" value="1"/>
  <variable name="x244_95" index="146720" value="1"/>
  <variable name="x245_217" index="147442" value="1"/>
  <variable name="x246_463" index="148288" value="1"/>
  <variable name="x247_344" index="148769" value="1"/>
  <variable name="x248_176" index="149201" value="1"/>
  <variable name="x249_197" index="149822" value="1"/>
  <variable name="x250_472" index="150697" value="1"/>
  <variable name="x251_87" index="150912" value="1"/>
  <variable name="x252_89" index="151514" value="1"/>
  <variable name="x253_538" index="152563" value="1"/>
  <variable name="x254_566" index="153191" value="1"/>
  <variable name="x255_67" index="153292" value="1"/>
  <variable name="x256_493" index="154318" value="1"/>
  <variable name="x257_343" index="154768" value="1"/>
  <variable name="x258_476" index="155501" value="1"/>
  <variable name="x259_55" index="155680" value="1"/>
  <variable name="x260_543" index="156768" value="1"/>
  <variable name="x261_74" index="156899" value="1"/>
  <variable name="x262_571" index="157996" value="1"/>
  <variable name="x263_562" index="158587" value="1"/>
  <variable name="x264_485" index="159110" value="1"/>
  <variable name="x265_527" index="159752" value="1"/>
  <variable name="x266_315" index="160140" value="1"/>
  <variable name="x267_138" index="160563" value="1"/>
  <variable name="x268_57" index="161082" value="1"/>
  <variable name="x269_7" index="161632" value="1"/>
  <variable name="x270_150" index="162375" value="1"/>
  <variable name="x271_523" index="163348" value="1"/>
  <variable name="x272_39" index="163464" value="1"/>
  <variable name="x273_12" index="164037" value="1"/>
  <variable name="x274_105" index="164730" value="1"/>
  <variable name="x275_102" index="165327" value="1"/>
  <variable name="x276_531" index="166356" value="1"/>
  <variable name="x277_578" index="167003" value="1"/>
  <variable name="x278_389" index="167414" value="1"/>
  <variable name="x279_359" index="167984" value="1"/>
  <variable name="x280_374" index="168599" value="1"/>
  <variable name="x281_269" index="169094" value="1"/>
  <variable name="x282_170" index="169595" value="1"/>
  <variable name="x283_142" index="170167" value="1"/>
  <variable name="x284_61" index="170686" value="1"/>
  <variable name="x285_402" index="171627" value="1"/>
  <variable name="x286_369" index="172194" value="1"/>
  <variable name="x287_93" index="172518" value="1"/>
  <variable name="x288_224" index="173249" value="1"/>
  <variable name="x289_579" index="174204" value="1"/>
  <variable name="x290_462" index="174687" value="1"/>
  <variable name="x291_51" index="174876" value="1"/>
  <variable name="x292_21" index="175446" value="1"/>
  <variable name="x293_433" index="176458" value="1"/>
  <variable name="x294_515" index="177140" value="1"/>
  <variable name="x295_26" index="177251" value="1"/>
  <variable name="x296_194" index="178019" value="1"/>
  <variable name="x297_27" index="178452" value="1"/>
  <variable name="x298_498" index="179523" value="1"/>
  <variable name="x299_127" index="179752" value="1"/>
  <variable name="x300_68" index="180293" value="1"/>
  <variable name="x301_309" index="181134" value="1"/>
  <variable name="x302_136" index="181561" value="1"/>
  <variable name="x303_295" index="182320" value="1"/>
  <variable name="x304_505" index="183130" value="1"/>
  <variable name="x305_519" index="183744" value="1"/>
  <variable name="x306_329" index="184154" value="1"/>
  <variable name="x307_411" index="184836" value="1"/>
  <variable name="x308_586" index="185611" value="1"/>
  <variable name="x309_20" index="185645" value="1"/>
  <variable name="x310_475" index="186700" value="1"/>
  <variable name="x311_362" index="187187" value="1"/>
  <variable name="x312_63" index="187488" value="1"/>
  <variable name="x313_518" index="188543" value="1"/>
  <variable name="x314_9" index="188634" value="1"/>
  <variable name="x315_305" index="189530" value="1"/>
  <variable name="x316_98" index="189923" value="1"/>
  <variable name="x317_580" index="191005" value="1"/>
  <variable name="x318_371" index="191396" value="1"/>
  <variable name="x319_178" index="191803" value="1"/>
  <variable name="x320_377" index="192602" value="1"/>
  <variable name="x321_585" index="193410" value="1"/>
  <variable name="x322_205" index="193630" value="1"/>
  <variable name="x323_431" index="194456" value="1"/>
  <variable name="x324_286" index="194911" value="1"/>
  <variable name="x325_323" index="195548" value="1"/>
  <variable name="x326_509" index="196334" value="1"/>
  <variable name="x327_192" index="196617" value="1"/>
  <variable name="x328_273" index="197298" value="1"/>
  <variable name="x329_341" index="197966" value="1"/>
  <variable name="x330_230" index="198455" value="1"/>
  <variable name="x331_165" index="198990" value="1"/>
  <variable name="x332_427" index="199852" value="1"/>
  <variable name="x333_175" index="200200" value="1"/>
  <variable name="x334_177" index="200802" value="1"/>
  <variable name="x335_583" index="201808" value="1"/>
  <variable name="x336_234" index="202059" value="1"/>
  <variable name="x337_414" index="202839" value="1"/>
  <variable name="x338_78" index="203103" value="1"/>
  <variable name="x339_438" index="204063" value="1"/>
  <variable name="x340_419" index="204644" value="1"/>
  <variable name="x341_22" index="204847" value="1"/>
  <variable name="x342_114" index="205539" value="1"/>
  <variable name="x343_152" index="206177" value="1"/>
  <variable name="x344_236" index="206861" value="1"/>
  <variable name="x345_73" index="207298" value="1"/>
  <variable name="x346_124" index="207949" value="1"/>
  <variable name="x347_210" index="208635" value="1"/>
  <variable name="x348_372" index="209397" value="1"/>
  <variable name="x349_283" index="209908" value="1"/>
  <variable name="x350_223" index="210448" value="1"/>
  <variable name="x351_16" index="210841" value="1"/>
  <variable name="x352_526" index="211951" value="1"/>
  <variable name="x353_118" index="212143" value="1"/>
  <variable name="x354_392" index="213017" value="1"/>
  <variable name="x355_240" index="213465" value="1"/>
  <variable name="x356_79" index="213904" value="1"/>
  <variable name="x357_53" index="214478" value="1"/>
  <variable name="x358_189" index="215214" value="1"/>
  <variable name="x359_340" index="215965" value="1"/>
  <variable name="x360_317" index="216542" value="1"/>
  <variable name="x361_220" index="217045" value="1"/>
  <variable name="x362_504" index="217929" value="1"/>
  <variable name="x363_570" index="218595" value="1"/>
  <variable name="x364_83" index="218708" value="1"/>
  <variable name="x365_561" index="219786" value="1"/>
  <variable name="x366_328" index="220153" value="1"/>
  <variable name="x367_306" index="220731" value="1"/>
  <variable name="x368_569" index="221594" value="1"/>
  <variable name="x369_90" index="221715" value="1"/>
  <variable name="x370_322" index="222547" value="1"/>
  <variable name="x371_424" index="223249" value="1"/>
  <variable name="x372_587" index="224012" value="1"/>
  <variable name="x373_287" index="224312" value="1"/>
  <variable name="x374_568" index="225193" value="1"/>
  <variable name="x375_52" index="225277" value="1"/>
  <variable name="x376_553" index="226378" value="1"/>
  <variable name="x377_549" index="226974" value="1"/>
  <variable name="x378_510" index="227535" value="1"/>
  <variable name="x379_501" index="228126" value="1"/>
  <variable name="x380_208" index="228433" value="1"/>
  <variable name="x381_473" index="229298" value="1"/>
  <variable name="x382_36" index="229461" value="1"/>
  <variable name="x383_502" index="230527" value="1"/>
  <variable name="x384_260" index="230885" value="1"/>
  <variable name="x385_145" index="231370" value="1"/>
  <variable name="x386_294" index="232119" value="1"/>
  <variable name="x387_387" index="232812" value="1"/>
  <variable name="x388_258" index="233283" value="1"/>
  <variable name="x389_441" index="234066" value="1"/>
  <variable name="x390_119" index="234344" value="1"/>
  <variable name="x391_487" index="235312" value="1"/>
  <variable name="x392_237" index="235662" value="1"/>
  <variable name="x393_348" index="236373" value="1"/>
  <variable name="x394_364" index="236989" value="1"/>
  <variable name="x395_246" index="237471" value="1"/>
  <variable name="x396_195" index="238020" value="1"/>
  <variable name="x397_199" index="238624" value="1"/>
  <variable name="x398_594" index="239619" value="1"/>
  <variable name="x399_393" index="240018" value="1"/>
  <variable name="x400_166" index="240391" value="1"/>
  <variable name="x401_187" index="241012" value="1"/>
  <variable name="x402_410" index="241835" value="1"/>
  <variable name="x403_120" index="242145" value="1"/>
  <variable name="x404_584" index="243209" value="1"/>
  <variable name="x405_42" index="243267" value="1"/>
  <variable name="x406_381" index="244206" value="1"/>
  <variable name="x407_513" index="244938" value="1"/>
  <variable name="x408_497" index="245522" value="1"/>
  <variable name="x409_225" index="245850" value="1"/>
  <variable name="x410_483" index="246708" value="1"/>
  <variable name="x411_450" index="247275" value="1"/>
  <variable name="x412_546" index="247971" value="1"/>
  <variable name="x413_332" index="248357" value="1"/>
  <variable name="x414_313" index="248938" value="1"/>
  <variable name="x415_304" index="249529" value="1"/>
  <variable name="x416_440" index="250265" value="1"/>
  <variable name="x417_420" index="250845" value="1"/>
  <variable name="x418_8" index="251033" value="1"/>
  <variable name="x419_507" index="252132" value="1"/>
  <variable name="x420_460" index="252685" value="1"/>
  <variable name="x421_572" index="253397" value="1"/>
  <variable name="x422_159" index="253584" value="1"/>
  <variable name="x423_552" index="254577" value="1"/>
  <variable name="x424_116" index="254741" value="1"/>
  <variable name="x425_24" index="255249" value="1"/>
  <variable name="x426_75" index="255900" value="1"/>
  <variable name="x427_545" index="256970" value="1"/>
  <variable name="x428_204" index="257229" value="1"/>
  <variable name="x429_457" index="258082" value="1"/>
  <variable name="x430_156" index="258381" value="1"/>
  <variable name="x431_151" index="258976" value="1"/>
  <variable name="x432_216" index="259641" value="1"/>
  <variable name="x433_443" index="260468" value="1"/>
  <variable name="x434_379" index="261004" value="1"/>
  <variable name="x435_514" index="261739" value="1"/>
  <variable name="x436_467" index="262292" value="1"/>
  <variable name="x437_245" index="262670" value="1"/>
  <variable name="x438_388" index="263413" value="1"/>
  <variable name="x439_299" index="263924" value="1"/>
  <variable name="x440_355" index="264580" value="1"/>
  <variable name="x441_125" index="264950" value="1"/>
  <variable name="x442_233" index="265658" value="1"/>
  <variable name="x443_565" index="266590" value="1"/>
  <variable name="x444_540" index="267165" value="1"/>
  <variable name="x445_209" index="267434" value="1"/>
  <variable name="x446_253" index="268078" value="1"/>
  <variable name="x447_336" index="268761" value="1"/>
  <variable name="x448_321" index="269346" value="1"/>
  <variable name="x449_173" index="269798" value="1"/>
  <variable name="x450_395" index="270620" value="1"/>
  <variable name="x451_40" index="270865" value="1"/>
  <variable name="x452_32" index="271457" value="1"/>
  <variable name="x453_4" index="272029" value="1"/>
  <variable name="x454_593" index="273218" value="1"/>
  <variable name="x455_464" index="273689" value="1"/>
  <variable name="x456_404" index="274229" value="1"/>
  <variable name="x457_0" index="274425" value="1"/>
  <variable name="x458_81" index="275106" value="1"/>
  <variable name="x459_184" index="275809" value="1"/>
  <variable name="x460_69" index="276294" value="1"/>
  <variable name="x461_537" index="277362" value="1"/>
  <variable name="x462_143" index="277568" value="1"/>
  <variable name="x463_23" index="278048" value="1"/>
  <variable name="x464_96" index="278721" value="1"/>
  <variable name="x465_520" index="279745" value="1"/>
  <variable name="x466_302" index="280127" value="1"/>
  <variable name="x467_439" index="280864" value="1"/>
  <variable name="x468_137" index="281162" value="1"/>
  <variable name="x469_432" index="282057" value="1"/>
  <variable name="x470_110" index="282335" value="1"/>
  <variable name="x471_536" index="283361" value="1"/>
  <variable name="x472_206" index="283631" value="1"/>
  <variable name="x473_435" index="284460" value="1"/>
  <variable name="x474_255" index="284880" value="1"/>
  <variable name="x475_338" index="285563" value="1"/>
  <variable name="x476_375" index="286200" value="1"/>
  <variable name="x477_185" index="286610" value="1"/>
  <variable name="x478_547" index="287572" value="1"/>
  <variable name="x479_588" index="288213" value="1"/>
  <variable name="x480_128" index="288353" value="1"/>
  <variable name="x481_71" index="288896" value="1"/>
  <variable name="x482_183" index="289608" value="1"/>
  <variable name="x483_589" index="290614" value="1"/>
  <variable name="x484_591" index="291216" value="1"/>
  <variable name="x485_77" index="291302" value="1"/>
  <variable name="x486_219" index="292044" value="1"/>
  <variable name="x487_324" index="292749" value="1"/>
  <variable name="x488_65" index="293090" value="1"/>
  <variable name="x489_482" index="294107" value="1"/>
  <variable name="x490_88" index="294313" value="1"/>
  <variable name="x491_30" index="294855" value="1"/>
  <variable name="x492_135" index="295560" value="1"/>
  <variable name="x493_500" index="296525" value="1"/>
  <variable name="x494_385" index="297010" value="1"/>
  <variable name="x495_458" index="297683" value="1"/>
  <variable name="x496_292" index="298117" value="1"/>
  <variable name="x497_397" index="298822" value="1"/>
  <variable name="x498_446" index="299471" value="1"/>
  <variable name="x499_203" index="299828" value="1"/>
  <variable name="x500_417" index="300642" value="1"/>
  <variable name="x501_174" index="300999" value="1"/>
  <variable name="x502_271" index="301696" value="1"/>
  <variable name="x503_139" index="302164" value="1"/>
  <variable name="x504_481" index="303106" value="1"/>
  <variable name="x505_272" index="303497" value="1"/>
  <variable name="x506_494" index="304319" value="1"/>
  <variable name="x507_123" index="304548" value="1"/>
  <variable name="x508_227" index="305252" value="1"/>
  <variable name="x509_470" index="306095" value="1"/>
  <variable name="x510_596" index="306821" value="1"/>
  <variable name="x511_577" index="307402" value="1"/>
  <variable name="x512_282" index="307707" value="1"/>
  <variable name="x513_370" index="308395" value="1"/>
  <variable name="x514_459" index="309084" value="1"/>
  <variable name="x515_576" index="309801" value="1"/>
  <variable name="x516_59" index="309884" value="1"/>
  <variable name="x517_352" index="310777" value="1"/>
  <variable name="x518_207" index="311232" value="1"/>
  <variable name="x519_82" index="311707" value="1"/>
  <variable name="x520_296" index="312521" value="1"/>
  <variable name="x521_141" index="312966" value="1"/>
  <variable name="x522_60" index="313485" value="1"/>
  <variable name="x523_200" index="314225" value="1"/>
  <variable name="x524_466" index="315091" value="1"/>
  <variable name="x525_3" index="315228" value="1"/>
  <variable name="x526_146" index="315971" value="1"/>
  <variable name="x527_408" index="316833" value="1"/>
  <variable name="x528_559" index="317584" value="1"/>
  <variable name="x529_41" index="317666" value="1"/>
  <variable name="x530_266" index="318491" value="1"/>
  <variable name="x531_129" index="318954" value="1"/>
  <variable name="x532_582" index="320007" value="1"/>
  <variable name="x533_320" index="320345" value="1"/>
  <variable name="x534_241" index="320866" value="1"/>
  <variable name="x535_353" index="321578" value="1"/>
  <variable name="x536_386" index="322211" value="1"/>
  <variable name="x537_407" index="322832" value="1"/>
  <variable name="x538_492" index="323517" value="1"/>
  <variable name="x539_181" index="323806" value="1"/>
  <variable name="x540_479" index="324704" value="1"/>
  <variable name="x541_70" index="324895" value="1"/>
  <variable name="x542_489" index="325914" value="1"/>
  <variable name="x543_334" index="326359" value="1"/>
  <variable name="x544_228" index="326853" value="1"/>
  <variable name="x545_49" index="327274" value="1"/>
  <variable name="x546_405" index="328230" value="1"/>
  <variable name="x547_378" index="328803" value="1"/>
  <variable name="x548_318" index="329343" value="1"/>
  <variable name="x549_25" index="329650" value="1"/>
  <variable name="x550_358" index="330583" value="1"/>
  <variable name="x551_202" index="331027" value="1"/>
  <variable name="x552_115" index="331540" value="1"/>
  <variable name="x553_244" index="332269" value="1"/>
  <variable name="x554_558" index="333183" value="1"/>
  <variable name="x555_278" index="333503" value="1"/>
  <variable name="x556_133" index="333958" value="1"/>
  <variable name="x557_263" index="334688" value="1"/>
  <variable name="x558_415" index="335440" value="1"/>
  <variable name="x559_106" index="335731" value="1"/>
  <variable name="x560_291" index="336516" value="1"/>
  <variable name="x561_491" index="337316" value="1"/>
  <variable name="x562_196" index="337621" value="1"/>
  <variable name="x563_598" index="338623" value="1"/>
  <variable name="x564_186" index="338811" value="1"/>
  <variable name="x565_442" index="339667" value="1"/>
  <variable name="x566_403" index="340228" value="1"/>
  <variable name="x567_267" index="340692" value="1"/>
  <variable name="x568_557" index="341582" value="1"/>
  <variable name="x569_551" index="342176" value="1"/>
  <variable name="x570_84" index="342309" value="1"/>
  <variable name="x571_276" index="343101" value="1"/>
  <variable name="x572_471" index="343896" value="1"/>
  <variable name="x573_436" index="344461" value="1"/>
  <variable name="x574_251" index="344876" value="1"/>
  <variable name="x575_160" index="345385" value="1"/>
  <variable name="x576_109" index="345934" value="1"/>
  <variable name="x577_14" index="346439" value="1"/>
  <variable name="x578_31" index="347056" value="1"/>
  <variable name="x579_528" index="348153" value="1"/>
  <variable name="x580_331" index="348556" value="1"/>
  <variable name="x581_496" index="349321" value="1"/>
  <variable name="x582_542" index="349967" value="1"/>
  <variable name="x583_232" index="350257" value="1"/>
  <variable name="x584_15" index="350640" value="1"/>
  <variable name="x585_270" index="351495" value="1"/>
  <variable name="x586_310" index="352135" value="1"/>
  <variable name="x587_534" index="352959" value="1"/>
  <variable name="x588_396" index="353421" value="1"/>
  <variable name="x589_108" index="353733" value="1"/>
  <variable name="x590_357" index="354582" value="1"/>
  <variable name="x591_399" index="355224" value="1"/>
  <variable name="x592_351" index="355776" value="1"/>
  <variable name="x593_394" index="356419" value="1"/>
  <variable name="x594_275" index="356900" value="1"/>
  <variable name="x595_284" index="357509" value="1"/>
  <variable name="x596_252" index="358077" value="1"/>
  <variable name="x597_18" index="358443" value="1"/>
  <variable name="x598_66" index="359091" value="1"/>
  <variable name="x599_337" index="359962" value="1"/>
  <variable name="k2" index="360227" value="1"/>
  <variable name="k6" index="360231" value="1"/>
  <variable name="k7" index="360232" value="1"/>
  <variable name="k9" index="360234" value="1"/>
  <variable name="u0" index="360240" value="1"/>
  <variable name="u1" index="360241" value="1"/>
  <variable name="u3" index="360243" value="1"/>
  <variable name="u5" index="360245" value="1"/>
  <variable name="u6" index="360246" value="1"/>
  <variable name="u7" index="360247" value="1"/>
  <variable name="u8" index="360248" value="1"/>
  <variable name="u9" index="360249" value="1"/>
  <variable name="u10" index="360250" value="1"/>
  <variable name="u11" index="360251" value="1"/>
  <variable name="u13" index="360253" value="1"/>
  <variable name="u14" index="360254" value="1"/>
 </variables>
</CPLEXSolution>
